s=4;
m=13;
layout = array2d(1..17,1..3, [
31, 30, 8, 
45, 50, 19, 
37, 12, 47, 
24, 9, 18, 
16, 40, 20, 
38, 36, 49, 
11, 33, 51, 
39, 10, 14, 
3, 27, 46, 
29, 2, 35, 
4, 32, 17, 
15, 13, 5, 
23, 34, 28, 
48, 21, 52, 
22, 6, 42, 
44, 41, 26, 
25, 43, 7
]);
tbl = array2d(1..m*s*s*2, 1..2, [
1,13,
1,26,
1,39,
1,52,
1,2,
1,15,
1,28,
1,41,
2,1,
2,14,
2,27,
2,40,
2,3,
2,16,
2,29,
2,42,
3,2,
3,15,
3,28,
3,41,
3,4,
3,17,
3,30,
3,43,
4,3,
4,16,
4,29,
4,42,
4,5,
4,18,
4,31,
4,44,
5,4,
5,17,
5,30,
5,43,
5,6,
5,19,
5,32,
5,45,
6,5,
6,18,
6,31,
6,44,
6,7,
6,20,
6,33,
6,46,
7,6,
7,19,
7,32,
7,45,
7,8,
7,21,
7,34,
7,47,
8,7,
8,20,
8,33,
8,46,
8,9,
8,22,
8,35,
8,48,
9,8,
9,21,
9,34,
9,47,
9,10,
9,23,
9,36,
9,49,
10,9,
10,22,
10,35,
10,48,
10,11,
10,24,
10,37,
10,50,
11,10,
11,23,
11,36,
11,49,
11,12,
11,25,
11,38,
11,51,
12,11,
12,24,
12,37,
12,50,
12,13,
12,26,
12,39,
12,52,
13,12,
13,25,
13,38,
13,51,
13,14,
13,27,
13,40,
13,1,
14,13,
14,26,
14,39,
14,52,
14,2,
14,15,
14,28,
14,31,
15,1,
15,14,
15,27,
15,40,
15,3,
15,16,
15,29,
15,42,
16,2,
16,15,
16,28,
16,41,
16,4,
16,17,
16,30,
16,43,
17,3,
17,16,
17,29,
17,42,
17,5,
17,18,
17,31,
17,44,
18,4,
18,17,
18,30,
18,43,
18,6,
18,19,
18,32,
18,45,
19,5,
19,18,
19,31,
19,44,
19,7,
19,20,
19,33,
19,46,
20,6,
20,19,
20,32,
20,45,
20,8,
20,21,
20,34,
20,47,
21,7,
21,20,
21,33,
21,46,
21,9,
21,22,
21,35,
21,48,
22,8,
22,21,
22,34,
22,47,
22,10,
22,23,
22,36,
22,49,
23,9,
23,22,
23,35,
23,48,
23,11,
23,24,
23,37,
23,50,
24,10,
24,23,
24,36,
24,49,
24,12,
24,25,
24,38,
24,51,
25,11,
25,24,
25,37,
25,50,
25,13,
25,26,
25,39,
25,52,
26,12,
26,25,
26,38,
26,51,
26,14,
26,27,
26,40,
26,1,
27,13,
27,26,
27,39,
27,52,
27,2,
27,15,
27,28,
27,31,
28,1,
28,14,
28,27,
28,40,
28,3,
28,16,
28,29,
28,42,
29,2,
29,15,
29,28,
29,41,
29,4,
29,17,
29,30,
29,43,
30,3,
30,16,
30,29,
30,42,
30,5,
30,18,
30,31,
30,44,
31,4,
31,17,
31,30,
31,43,
31,6,
31,19,
31,32,
31,45,
32,5,
32,18,
32,31,
32,44,
32,7,
32,20,
32,33,
32,46,
33,6,
33,19,
33,32,
33,45,
33,8,
33,21,
33,34,
33,47,
34,7,
34,20,
34,33,
34,46,
34,9,
34,22,
34,35,
34,48,
35,8,
35,21,
35,34,
35,47,
35,10,
35,23,
35,36,
35,49,
36,9,
36,22,
36,35,
36,48,
36,11,
36,24,
36,37,
36,50,
37,10,
37,23,
37,36,
37,49,
37,12,
37,25,
37,38,
37,51,
38,11,
38,24,
38,37,
38,50,
38,13,
38,26,
38,39,
38,52,
39,12,
39,25,
39,38,
39,51,
39,14,
39,27,
39,40,
39,1,
40,13,
40,26,
40,39,
40,52,
40,2,
40,15,
40,28,
40,31,
41,1,
41,14,
41,27,
41,40,
41,3,
41,16,
41,29,
41,42,
42,2,
42,15,
42,28,
42,41,
42,4,
42,17,
42,30,
42,43,
43,3,
43,16,
43,29,
43,42,
43,5,
43,18,
43,31,
43,44,
44,4,
44,17,
44,30,
44,43,
44,6,
44,19,
44,32,
44,45,
45,5,
45,18,
45,31,
45,44,
45,7,
45,20,
45,33,
45,46,
46,6,
46,19,
46,32,
46,45,
46,8,
46,21,
46,34,
46,47,
47,7,
47,20,
47,33,
47,46,
47,9,
47,22,
47,35,
47,48,
48,8,
48,21,
48,34,
48,47,
48,10,
48,23,
48,36,
48,49,
49,9,
49,22,
49,35,
49,48,
49,11,
49,24,
49,37,
49,50,
50,10,
50,23,
50,36,
50,49,
50,12,
50,25,
50,38,
50,51,
51,11,
51,24,
51,37,
51,50,
51,13,
51,26,
51,39,
51,52,
52,12,
52,25,
52,38,
52,51,
52,14,
52,27,
52,40,
52,1
]);